n = 100;
C = 26578;
w = [219,27,298,1,770,851,202,938,343,846,656,862,262,859,612,766,818,690,905,505,391,414,17,888,991,260,993,812,842,989,181,438,612,761,319,647,154,908,108,481,661,46,191,398,154,245,811,992,25,334,691,920,437,652,340,922,747,784,246,433,222,377,910,839,363,557,688,192,864,753,115,184,642,662,557,42,832,477,553,635,746,741,509,350,406,986,161,488,763,495,189,911,391,695,571,751,63,209,525,77];
p = [219,27,298,1,770,851,202,938,343,846,656,862,262,859,612,766,818,690,905,505,391,414,17,888,991,260,993,812,842,989,181,438,612,761,319,647,154,908,108,481,661,46,191,398,154,245,811,992,25,334,691,920,437,652,340,922,747,784,246,433,222,377,910,839,363,557,688,192,864,753,115,184,642,662,557,42,832,477,553,635,746,741,509,350,406,986,161,488,763,495,189,911,391,695,571,751,63,209,525,77];
